p edge 2888 2981
e 1 2
e 1 3
e 1 4
e 1 5
e 1 6
e 1 7
e 1 8
e 1 9
e 1 10
e 1 11
e 1 12
e 1 13
e 1 14
e 1 15
e 1 16
e 1 17
e 1 18
e 1 19
e 1 20
e 1 21
e 1 22
e 1 23
e 1 24
e 1 25
e 1 26
e 1 27
e 1 28
e 1 29
e 1 30
e 1 31
e 1 32
e 1 33
e 1 34
e 1 35
e 1 36
e 1 37
e 1 38
e 1 39
e 1 40
e 1 41
e 1 42
e 1 43
e 1 44
e 1 45
e 1 46
e 1 47
e 1 48
e 1 49
e 1 50
e 1 51
e 1 52
e 1 53
e 1 54
e 1 55
e 1 56
e 1 57
e 1 58
e 1 59
e 1 60
e 1 61
e 1 62
e 1 63
e 1 64
e 1 65
e 1 66
e 1 67
e 1 68
e 1 69
e 1 70
e 1 71
e 1 72
e 1 73
e 1 74
e 1 75
e 1 76
e 1 77
e 1 78
e 1 79
e 1 80
e 1 81
e 1 82
e 1 83
e 1 84
e 1 85
e 1 86
e 1 87
e 1 88
e 1 89
e 1 90
e 1 91
e 1 92
e 1 93
e 1 94
e 1 95
e 1 96
e 1 97
e 1 98
e 1 99
e 1 100
e 1 101
e 1 102
e 1 103
e 1 104
e 1 105
e 1 106
e 1 107
e 1 108
e 1 109
e 1 110
e 1 111
e 1 112
e 1 113
e 1 114
e 1 115
e 1 116
e 1 117
e 1 118
e 1 119
e 1 120
e 1 121
e 1 122
e 1 123
e 1 124
e 1 125
e 1 126
e 1 127
e 1 128
e 1 129
e 1 130
e 1 131
e 1 132
e 1 133
e 1 134
e 1 135
e 1 136
e 1 137
e 1 138
e 1 139
e 1 140
e 1 141
e 1 142
e 1 143
e 1 144
e 1 145
e 1 146
e 1 147
e 1 148
e 1 149
e 1 150
e 1 151
e 1 152
e 1 153
e 1 154
e 1 155
e 1 156
e 1 157
e 1 158
e 1 159
e 1 160
e 1 161
e 1 162
e 1 163
e 1 164
e 1 165
e 1 166
e 1 167
e 1 168
e 1 169
e 1 170
e 1 171
e 1 172
e 1 173
e 1 174
e 1 175
e 1 176
e 1 177
e 1 178
e 1 179
e 1 180
e 1 181
e 1 182
e 1 183
e 1 184
e 1 185
e 1 186
e 1 187
e 1 188
e 1 189
e 1 190
e 1 191
e 1 192
e 1 193
e 1 194
e 1 195
e 1 196
e 1 197
e 1 198
e 1 199
e 1 200
e 1 201
e 1 202
e 1 203
e 1 204
e 1 205
e 1 206
e 1 207
e 1 208
e 1 209
e 1 210
e 1 211
e 1 212
e 1 213
e 1 214
e 1 215
e 1 216
e 1 217
e 1 218
e 1 219
e 1 220
e 1 221
e 1 222
e 1 223
e 1 224
e 1 225
e 1 226
e 1 227
e 1 228
e 1 229
e 1 230
e 1 231
e 1 232
e 1 233
e 1 234
e 1 235
e 1 236
e 1 237
e 1 238
e 1 239
e 1 240
e 1 241
e 1 242
e 1 243
e 1 244
e 1 245
e 1 246
e 1 247
e 1 248
e 1 249
e 1 250
e 1 251
e 1 252
e 1 253
e 1 254
e 1 255
e 1 256
e 1 257
e 1 258
e 1 259
e 1 260
e 1 261
e 1 262
e 1 263
e 1 264
e 1 265
e 1 266
e 1 267
e 1 268
e 1 269
e 1 270
e 1 271
e 1 272
e 1 273
e 1 274
e 1 275
e 1 276
e 1 277
e 1 278
e 1 279
e 1 280
e 1 281
e 1 282
e 1 283
e 1 284
e 1 285
e 1 286
e 1 287
e 1 288
e 35 1525
e 69 603
e 71 710
e 71 714
e 90 710
e 217 710
e 247 288
e 247 603
e 247 1525
e 288 289
e 288 290
e 288 291
e 288 292
e 288 293
e 288 294
e 288 295
e 288 296
e 288 297
e 288 298
e 288 299
e 288 300
e 288 301
e 288 302
e 288 303
e 288 304
e 288 305
e 288 306
e 288 307
e 288 308
e 288 309
e 288 310
e 288 311
e 288 312
e 288 313
e 288 314
e 288 315
e 288 316
e 288 317
e 288 318
e 288 319
e 288 320
e 288 321
e 288 322
e 288 323
e 288 324
e 288 325
e 288 326
e 288 327
e 288 328
e 288 329
e 288 330
e 288 331
e 288 332
e 288 333
e 288 334
e 288 335
e 288 336
e 288 337
e 288 338
e 288 339
e 288 340
e 288 341
e 288 342
e 288 343
e 288 344
e 288 345
e 288 346
e 288 347
e 288 348
e 288 349
e 288 350
e 288 351
e 288 352
e 288 353
e 288 354
e 288 355
e 288 356
e 288 357
e 288 358
e 288 359
e 288 360
e 288 361
e 288 362
e 288 363
e 288 364
e 288 365
e 288 366
e 288 367
e 288 368
e 288 369
e 288 370
e 288 371
e 288 372
e 288 373
e 288 374
e 288 375
e 288 376
e 288 377
e 288 378
e 288 379
e 288 380
e 288 381
e 288 382
e 288 383
e 288 384
e 288 385
e 288 386
e 288 387
e 288 388
e 288 389
e 288 390
e 288 391
e 288 392
e 288 393
e 288 394
e 288 395
e 288 396
e 288 397
e 288 398
e 288 399
e 288 400
e 288 401
e 288 402
e 288 403
e 288 404
e 288 405
e 288 406
e 288 407
e 288 408
e 288 409
e 288 410
e 288 411
e 288 412
e 288 413
e 288 414
e 288 415
e 288 416
e 288 417
e 288 418
e 288 419
e 288 420
e 288 421
e 288 422
e 288 423
e 288 424
e 288 425
e 288 426
e 288 427
e 288 428
e 288 429
e 288 430
e 288 431
e 288 432
e 288 433
e 288 434
e 288 435
e 288 436
e 288 437
e 288 438
e 288 439
e 288 440
e 288 441
e 288 442
e 288 443
e 288 444
e 288 445
e 288 446
e 288 447
e 288 448
e 288 449
e 288 450
e 288 451
e 288 452
e 288 453
e 288 454
e 288 455
e 288 456
e 288 457
e 288 458
e 288 459
e 288 460
e 288 461
e 288 462
e 288 463
e 288 464
e 288 465
e 288 466
e 288 467
e 288 468
e 288 469
e 288 470
e 288 471
e 288 472
e 288 473
e 288 474
e 288 475
e 288 476
e 288 477
e 288 478
e 288 479
e 288 480
e 288 481
e 288 482
e 288 483
e 288 484
e 288 485
e 288 486
e 288 487
e 288 488
e 288 489
e 288 490
e 288 491
e 288 492
e 288 493
e 288 494
e 288 495
e 288 496
e 288 497
e 288 498
e 288 499
e 288 500
e 288 501
e 288 502
e 288 503
e 288 504
e 288 505
e 288 506
e 288 507
e 288 508
e 288 509
e 288 510
e 288 511
e 288 512
e 288 513
e 288 514
e 288 515
e 288 516
e 288 517
e 288 518
e 288 519
e 288 520
e 288 521
e 288 522
e 288 523
e 288 524
e 288 525
e 288 526
e 288 527
e 288 528
e 288 529
e 288 530
e 288 531
e 288 532
e 288 533
e 288 534
e 288 535
e 288 536
e 288 537
e 288 538
e 288 539
e 288 540
e 288 541
e 288 542
e 288 543
e 288 544
e 288 545
e 288 546
e 288 547
e 288 548
e 288 549
e 288 550
e 288 551
e 288 552
e 288 553
e 288 554
e 288 555
e 288 556
e 288 557
e 288 558
e 288 559
e 288 560
e 288 561
e 288 562
e 288 563
e 288 564
e 288 565
e 288 566
e 288 567
e 288 568
e 288 569
e 288 570
e 288 571
e 288 572
e 288 573
e 288 574
e 288 575
e 288 576
e 288 577
e 288 578
e 288 579
e 288 580
e 288 581
e 288 582
e 288 583
e 288 584
e 288 585
e 288 586
e 288 587
e 288 588
e 288 589
e 288 590
e 288 591
e 288 592
e 288 593
e 288 594
e 288 595
e 288 596
e 288 597
e 288 598
e 288 599
e 288 600
e 288 601
e 288 602
e 288 603
e 288 604
e 288 605
e 288 606
e 288 607
e 288 608
e 288 609
e 288 610
e 288 611
e 288 612
e 288 613
e 288 614
e 288 615
e 288 616
e 288 617
e 288 618
e 288 619
e 288 620
e 288 621
e 288 622
e 288 623
e 288 624
e 288 625
e 288 626
e 288 627
e 288 628
e 288 629
e 288 630
e 288 631
e 288 632
e 288 633
e 288 634
e 288 635
e 288 636
e 288 637
e 288 638
e 288 639
e 288 640
e 288 641
e 288 642
e 288 643
e 288 644
e 288 645
e 288 646
e 288 647
e 288 648
e 288 649
e 288 650
e 288 651
e 288 652
e 288 653
e 288 654
e 288 655
e 288 656
e 288 657
e 288 658
e 288 659
e 288 660
e 288 661
e 288 662
e 288 663
e 288 664
e 288 665
e 288 666
e 288 667
e 288 668
e 288 669
e 288 670
e 288 671
e 288 672
e 288 673
e 288 674
e 288 675
e 288 676
e 288 677
e 288 678
e 288 679
e 288 680
e 288 681
e 288 682
e 288 683
e 288 684
e 288 685
e 288 686
e 288 687
e 288 688
e 288 689
e 288 690
e 288 691
e 288 692
e 288 693
e 288 694
e 288 695
e 288 696
e 288 697
e 288 698
e 288 699
e 288 700
e 288 701
e 288 702
e 288 703
e 288 704
e 288 705
e 288 706
e 288 707
e 288 708
e 288 709
e 288 710
e 288 711
e 288 712
e 288 713
e 288 714
e 288 715
e 288 716
e 288 717
e 288 718
e 288 719
e 288 720
e 288 721
e 288 722
e 288 723
e 288 724
e 288 725
e 288 726
e 288 727
e 288 728
e 288 729
e 288 730
e 288 731
e 288 732
e 288 733
e 288 734
e 288 735
e 288 736
e 288 737
e 288 738
e 288 739
e 288 740
e 288 741
e 288 742
e 288 743
e 288 744
e 288 745
e 288 746
e 288 747
e 288 748
e 288 749
e 288 750
e 288 751
e 288 752
e 288 753
e 288 754
e 288 755
e 288 756
e 288 757
e 288 758
e 288 759
e 288 760
e 288 761
e 288 762
e 288 763
e 288 764
e 288 765
e 288 766
e 288 767
e 335 2232
e 469 603
e 493 603
e 510 603
e 526 603
e 584 603
e 594 603
e 603 624
e 603 639
e 603 764
e 603 768
e 603 769
e 603 770
e 603 771
e 603 772
e 603 773
e 603 774
e 603 775
e 603 776
e 603 777
e 603 778
e 603 779
e 603 780
e 603 781
e 603 782
e 603 783
e 603 784
e 603 785
e 603 786
e 603 787
e 603 788
e 603 789
e 603 790
e 603 791
e 603 792
e 603 793
e 603 794
e 603 795
e 603 796
e 603 797
e 603 798
e 603 799
e 603 800
e 603 801
e 603 802
e 603 803
e 603 804
e 603 805
e 603 806
e 603 807
e 603 808
e 603 809
e 603 810
e 603 811
e 603 812
e 603 813
e 603 814
e 603 815
e 603 816
e 603 817
e 603 818
e 603 819
e 603 820
e 603 821
e 603 822
e 603 823
e 603 824
e 603 825
e 603 826
e 603 827
e 603 828
e 603 829
e 603 830
e 603 831
e 603 832
e 603 833
e 603 834
e 603 835
e 603 836
e 603 837
e 603 838
e 603 839
e 603 840
e 603 841
e 603 842
e 603 843
e 603 844
e 603 845
e 603 846
e 603 847
e 603 848
e 603 849
e 603 850
e 603 851
e 603 852
e 603 853
e 603 854
e 603 855
e 603 856
e 603 857
e 603 858
e 603 859
e 603 860
e 603 861
e 603 862
e 603 863
e 603 864
e 603 865
e 603 866
e 603 867
e 603 868
e 603 869
e 603 870
e 603 871
e 603 872
e 603 873
e 603 874
e 603 875
e 603 876
e 603 877
e 603 878
e 603 879
e 603 880
e 603 881
e 603 882
e 603 883
e 603 884
e 603 885
e 603 886
e 603 887
e 603 888
e 603 889
e 603 890
e 603 891
e 603 892
e 603 893
e 603 894
e 603 895
e 603 896
e 603 897
e 603 898
e 603 899
e 603 900
e 603 901
e 603 902
e 603 903
e 603 904
e 603 905
e 603 906
e 603 907
e 603 908
e 603 909
e 603 910
e 603 911
e 603 912
e 603 913
e 603 914
e 603 915
e 603 916
e 603 917
e 603 918
e 603 919
e 603 920
e 603 921
e 603 922
e 603 923
e 603 924
e 603 925
e 603 926
e 603 927
e 603 928
e 603 929
e 603 930
e 603 931
e 603 932
e 603 933
e 603 934
e 603 935
e 603 936
e 603 937
e 603 938
e 603 939
e 603 940
e 603 941
e 603 942
e 603 943
e 603 944
e 603 945
e 603 946
e 603 947
e 603 948
e 603 949
e 603 950
e 603 951
e 603 952
e 603 953
e 603 954
e 603 955
e 603 956
e 603 957
e 603 958
e 603 959
e 603 960
e 603 961
e 603 962
e 603 963
e 603 964
e 603 965
e 603 966
e 603 967
e 603 968
e 603 969
e 603 970
e 603 971
e 603 972
e 603 973
e 603 974
e 603 975
e 603 976
e 603 977
e 603 978
e 603 979
e 603 980
e 603 981
e 603 982
e 603 983
e 603 984
e 603 985
e 603 986
e 603 987
e 603 988
e 603 989
e 603 990
e 603 991
e 603 992
e 603 993
e 603 994
e 603 995
e 603 996
e 603 997
e 603 998
e 603 999
e 603 1000
e 603 1001
e 603 1002
e 603 1003
e 603 1004
e 603 1005
e 603 1006
e 603 1007
e 603 1008
e 603 1009
e 603 1010
e 603 1011
e 603 1012
e 603 1013
e 603 1014
e 603 1015
e 603 1016
e 603 1017
e 603 1018
e 603 1019
e 603 1020
e 603 1021
e 603 1022
e 603 1023
e 603 1024
e 603 1025
e 603 1026
e 603 1027
e 603 1028
e 603 1029
e 603 1030
e 603 1031
e 603 1032
e 603 1033
e 603 1034
e 603 1035
e 603 1036
e 603 1037
e 603 1038
e 603 1039
e 603 1040
e 603 1041
e 603 1042
e 603 1043
e 603 1044
e 603 1045
e 603 1046
e 603 1047
e 603 1048
e 603 1049
e 603 1050
e 603 1051
e 603 1052
e 603 1053
e 603 1054
e 603 1055
e 603 1056
e 603 1057
e 603 1058
e 603 1059
e 603 1060
e 603 1061
e 603 1062
e 603 1063
e 603 1064
e 603 1065
e 603 1066
e 603 1067
e 603 1068
e 603 1069
e 603 1070
e 603 1071
e 603 1072
e 603 1073
e 603 1074
e 603 1075
e 603 1076
e 603 1077
e 603 1078
e 603 1079
e 603 1080
e 603 1081
e 603 1082
e 603 1083
e 603 1084
e 603 1085
e 603 1086
e 603 1087
e 603 1088
e 603 1089
e 603 1090
e 603 1091
e 603 1092
e 603 1093
e 603 1094
e 603 1095
e 603 1096
e 603 1097
e 603 1098
e 603 1099
e 603 1100
e 603 1101
e 603 1102
e 603 1103
e 603 1104
e 603 1105
e 603 1106
e 603 1107
e 603 1108
e 603 1109
e 603 1110
e 603 1111
e 603 1112
e 603 1113
e 603 1114
e 603 1115
e 603 1116
e 603 1117
e 603 1118
e 603 1119
e 603 1120
e 603 1121
e 603 1122
e 603 1123
e 603 1124
e 603 1125
e 603 1126
e 603 1127
e 603 1128
e 603 1129
e 603 1130
e 603 1131
e 603 1132
e 603 1133
e 603 1134
e 603 1135
e 603 1136
e 603 1137
e 603 1138
e 603 1139
e 603 1140
e 603 1141
e 603 1142
e 603 1143
e 603 1144
e 603 1145
e 603 1146
e 603 1147
e 603 1148
e 603 1149
e 603 1150
e 603 1151
e 603 1152
e 603 1153
e 603 1154
e 603 1155
e 603 1156
e 603 1157
e 603 1158
e 603 1159
e 603 1160
e 603 1161
e 603 1162
e 603 1163
e 603 1164
e 603 1165
e 603 1166
e 603 1167
e 603 1168
e 603 1169
e 603 1170
e 603 1171
e 603 1172
e 603 1173
e 603 1174
e 603 1175
e 603 1176
e 603 1177
e 603 1178
e 603 1179
e 603 1180
e 603 1181
e 603 1182
e 603 1183
e 603 1184
e 603 1185
e 603 1186
e 603 1187
e 603 1188
e 603 1189
e 603 1190
e 603 1191
e 603 1192
e 603 1193
e 603 1194
e 603 1195
e 603 1196
e 603 1197
e 603 1198
e 603 1199
e 603 1200
e 603 1201
e 603 1202
e 603 1203
e 603 1204
e 603 1205
e 603 1206
e 603 1207
e 603 1208
e 603 1209
e 603 1210
e 603 1211
e 603 1212
e 603 1213
e 603 1214
e 603 1215
e 603 1216
e 603 1217
e 603 1218
e 603 1219
e 603 1220
e 603 1221
e 603 1222
e 603 1223
e 603 1224
e 603 1225
e 603 1226
e 603 1227
e 603 1228
e 603 1229
e 603 1230
e 603 1231
e 603 1232
e 603 1233
e 603 1234
e 603 1235
e 603 1236
e 603 1237
e 603 1238
e 603 1239
e 603 1240
e 603 1241
e 603 1242
e 603 1243
e 603 1244
e 603 1245
e 603 1246
e 603 1247
e 603 1248
e 603 1249
e 603 1250
e 603 1251
e 603 1252
e 603 1253
e 603 1254
e 603 1255
e 603 1256
e 603 1257
e 603 1258
e 603 1259
e 603 1260
e 603 1261
e 603 1262
e 603 1263
e 603 1264
e 603 1265
e 603 1266
e 603 1267
e 603 1268
e 603 1269
e 603 1270
e 603 1271
e 603 1272
e 603 1273
e 603 1274
e 603 1275
e 603 1276
e 603 1277
e 603 1278
e 603 1279
e 603 1280
e 603 1281
e 603 1282
e 603 1283
e 603 1284
e 603 1285
e 603 1286
e 603 1287
e 603 1288
e 603 1289
e 603 1290
e 603 1291
e 603 1292
e 603 1293
e 603 1294
e 603 1295
e 603 1296
e 603 1297
e 603 1298
e 603 1299
e 603 1300
e 603 1301
e 603 1302
e 603 1303
e 603 1304
e 603 1305
e 603 1306
e 603 1307
e 603 1308
e 603 1309
e 603 1310
e 603 1311
e 603 1312
e 603 1313
e 603 1314
e 603 1315
e 603 1316
e 603 1317
e 603 1318
e 603 1319
e 603 1320
e 603 1321
e 603 1322
e 603 1323
e 603 1324
e 603 1325
e 603 1326
e 603 1327
e 603 1328
e 603 1329
e 603 1330
e 603 1331
e 603 1332
e 603 1333
e 603 1334
e 603 1335
e 603 1336
e 603 1337
e 603 1338
e 603 1339
e 603 1340
e 603 1341
e 603 1342
e 603 1343
e 603 1344
e 603 1345
e 603 1346
e 603 1347
e 603 1348
e 603 1349
e 603 1350
e 603 1351
e 603 1352
e 603 1353
e 603 1354
e 603 1355
e 603 1356
e 603 1357
e 603 1358
e 603 1359
e 603 1360
e 603 1361
e 603 1362
e 603 1363
e 603 1364
e 603 1365
e 603 1366
e 603 1367
e 603 1368
e 603 1369
e 603 1370
e 603 1371
e 603 1372
e 603 1373
e 603 1374
e 603 1375
e 603 1376
e 603 1377
e 603 1378
e 603 1379
e 603 1380
e 603 1381
e 603 1382
e 603 1383
e 603 1384
e 603 1385
e 603 1386
e 603 1387
e 603 1388
e 603 1389
e 603 1390
e 603 1391
e 603 1392
e 603 1393
e 603 1394
e 603 1395
e 603 1396
e 603 1397
e 603 1398
e 603 1399
e 603 1400
e 603 1401
e 603 1402
e 603 1403
e 603 1404
e 603 1405
e 603 1406
e 603 1407
e 603 1408
e 603 1409
e 603 1410
e 603 1411
e 603 1412
e 603 1413
e 603 1414
e 603 1415
e 603 1416
e 603 1417
e 603 1418
e 603 1419
e 603 1420
e 603 1421
e 603 1422
e 603 1423
e 603 1424
e 603 1425
e 603 1426
e 603 1427
e 603 1428
e 603 1429
e 603 1430
e 603 1431
e 603 1432
e 603 1433
e 603 1434
e 603 1435
e 603 1436
e 603 1437
e 603 1438
e 603 1439
e 603 1440
e 603 1441
e 603 1442
e 603 1443
e 603 1444
e 603 1445
e 603 1446
e 603 1447
e 603 1448
e 603 1449
e 603 1450
e 603 1451
e 603 1452
e 603 1453
e 603 1454
e 603 1455
e 603 1456
e 603 1457
e 603 1458
e 603 1459
e 603 1460
e 603 1461
e 603 1462
e 603 1463
e 603 1464
e 603 1465
e 603 1466
e 603 1467
e 603 1468
e 603 1469
e 603 1470
e 603 1471
e 603 1472
e 603 1473
e 603 1474
e 603 1475
e 603 1476
e 603 1477
e 603 1478
e 603 1479
e 603 1480
e 603 1481
e 603 1482
e 603 1483
e 603 1484
e 603 1485
e 603 1486
e 603 1487
e 603 1488
e 603 1489
e 603 1490
e 603 1491
e 603 1492
e 603 1493
e 603 1494
e 603 1495
e 603 1496
e 603 1497
e 603 1498
e 603 1499
e 603 1500
e 603 1501
e 603 1502
e 603 1503
e 603 1504
e 603 1505
e 603 1506
e 603 1507
e 603 1508
e 603 1509
e 603 1510
e 603 1511
e 603 1512
e 603 1513
e 603 1514
e 603 1515
e 603 1516
e 603 1517
e 603 1518
e 603 1519
e 603 1520
e 603 1521
e 603 1522
e 603 1523
e 603 1524
e 710 711
e 710 712
e 710 713
e 710 714
e 710 715
e 710 716
e 710 717
e 710 718
e 710 719
e 710 720
e 710 2329
e 710 2330
e 710 2331
e 710 2332
e 710 2333
e 710 2334
e 710 2335
e 710 2336
e 710 2337
e 710 2338
e 710 2339
e 710 2340
e 710 2341
e 710 2342
e 710 2343
e 710 2344
e 710 2345
e 710 2346
e 710 2347
e 710 2348
e 710 2349
e 710 2350
e 710 2351
e 710 2352
e 710 2353
e 710 2354
e 710 2355
e 710 2356
e 710 2357
e 710 2358
e 710 2359
e 710 2360
e 710 2361
e 710 2362
e 710 2363
e 710 2364
e 710 2365
e 710 2366
e 710 2367
e 710 2368
e 710 2369
e 710 2370
e 710 2371
e 710 2372
e 710 2373
e 710 2374
e 710 2375
e 710 2376
e 710 2377
e 710 2378
e 710 2379
e 710 2380
e 710 2381
e 710 2382
e 710 2383
e 710 2384
e 710 2385
e 710 2386
e 710 2387
e 710 2388
e 710 2389
e 710 2390
e 710 2391
e 710 2392
e 710 2393
e 710 2394
e 710 2395
e 710 2396
e 710 2397
e 710 2398
e 710 2399
e 710 2400
e 710 2401
e 710 2402
e 710 2403
e 710 2404
e 710 2405
e 710 2406
e 710 2407
e 710 2408
e 710 2409
e 710 2410
e 710 2411
e 710 2412
e 710 2413
e 710 2414
e 710 2415
e 710 2416
e 710 2417
e 710 2418
e 710 2419
e 710 2420
e 710 2421
e 710 2422
e 710 2423
e 710 2424
e 710 2425
e 710 2426
e 710 2427
e 710 2428
e 710 2429
e 710 2430
e 710 2431
e 710 2432
e 710 2433
e 710 2434
e 710 2435
e 710 2436
e 710 2437
e 710 2438
e 710 2439
e 710 2440
e 710 2441
e 710 2442
e 710 2443
e 710 2444
e 710 2445
e 710 2446
e 710 2447
e 710 2448
e 710 2449
e 710 2450
e 710 2451
e 710 2452
e 710 2453
e 710 2454
e 710 2455
e 710 2456
e 710 2457
e 710 2458
e 710 2459
e 710 2460
e 710 2461
e 710 2462
e 710 2463
e 710 2464
e 710 2465
e 710 2466
e 710 2467
e 710 2468
e 710 2469
e 710 2470
e 710 2471
e 710 2472
e 710 2473
e 710 2474
e 710 2475
e 710 2476
e 710 2477
e 710 2478
e 710 2479
e 710 2480
e 710 2481
e 710 2482
e 710 2483
e 710 2484
e 710 2485
e 710 2486
e 710 2487
e 710 2488
e 710 2489
e 710 2490
e 710 2491
e 710 2492
e 710 2493
e 710 2494
e 710 2495
e 710 2496
e 710 2497
e 710 2498
e 710 2499
e 710 2500
e 710 2501
e 710 2502
e 710 2503
e 710 2504
e 710 2505
e 710 2506
e 710 2507
e 710 2508
e 710 2509
e 710 2510
e 710 2511
e 710 2512
e 710 2513
e 710 2514
e 710 2515
e 710 2516
e 710 2517
e 710 2518
e 710 2519
e 710 2520
e 710 2521
e 710 2522
e 710 2523
e 710 2524
e 710 2525
e 710 2526
e 710 2527
e 710 2528
e 710 2529
e 710 2530
e 710 2531
e 710 2532
e 710 2533
e 710 2534
e 710 2535
e 711 714
e 714 716
e 714 719
e 714 720
e 714 721
e 714 722
e 714 2348
e 714 2351
e 714 2352
e 714 2354
e 714 2356
e 714 2366
e 714 2369
e 714 2370
e 714 2375
e 714 2386
e 714 2394
e 714 2395
e 714 2399
e 714 2402
e 714 2405
e 714 2407
e 714 2409
e 714 2431
e 714 2434
e 714 2444
e 714 2452
e 714 2461
e 714 2465
e 714 2469
e 714 2475
e 714 2482
e 714 2483
e 714 2484
e 714 2492
e 714 2509
e 714 2511
e 714 2518
e 714 2521
e 714 2523
e 714 2524
e 714 2526
e 714 2530
e 714 2594
e 714 2595
e 714 2596
e 714 2597
e 714 2598
e 714 2599
e 714 2600
e 714 2601
e 714 2602
e 714 2603
e 714 2604
e 714 2605
e 714 2606
e 714 2607
e 714 2608
e 714 2609
e 714 2610
e 714 2611
e 714 2612
e 714 2613
e 714 2614
e 714 2615
e 714 2616
e 714 2617
e 714 2618
e 714 2619
e 714 2620
e 714 2621
e 714 2622
e 714 2623
e 714 2624
e 714 2625
e 714 2626
e 714 2627
e 714 2628
e 714 2629
e 714 2630
e 714 2631
e 714 2632
e 714 2633
e 714 2634
e 714 2635
e 714 2636
e 714 2637
e 714 2638
e 714 2639
e 714 2640
e 714 2641
e 714 2642
e 714 2643
e 714 2644
e 714 2645
e 714 2646
e 714 2647
e 714 2648
e 714 2649
e 714 2650
e 714 2651
e 714 2652
e 714 2653
e 714 2654
e 714 2655
e 714 2656
e 714 2657
e 714 2658
e 714 2659
e 714 2660
e 714 2661
e 714 2662
e 714 2663
e 714 2664
e 714 2665
e 714 2666
e 714 2667
e 714 2668
e 714 2669
e 714 2670
e 714 2671
e 714 2672
e 714 2673
e 714 2674
e 714 2675
e 714 2676
e 714 2677
e 714 2678
e 714 2679
e 714 2680
e 714 2681
e 714 2682
e 714 2683
e 714 2684
e 714 2685
e 714 2686
e 716 1525
e 719 1525
e 1524 2699
e 1525 1526
e 1525 1527
e 1525 1528
e 1525 1529
e 1525 1530
e 1525 1531
e 1525 1532
e 1525 1533
e 1525 1534
e 1525 1535
e 1525 1536
e 1525 1537
e 1525 1538
e 1525 1539
e 1525 1540
e 1525 1541
e 1525 1542
e 1525 1543
e 1525 1544
e 1525 1545
e 1525 1546
e 1525 1547
e 1525 1548
e 1525 1549
e 1525 1550
e 1525 1551
e 1525 1552
e 1525 1553
e 1525 1554
e 1525 1555
e 1525 1556
e 1525 1557
e 1525 1558
e 1525 1559
e 1525 1560
e 1525 1561
e 1525 1562
e 1525 1563
e 1525 1564
e 1525 1565
e 1525 1566
e 1525 1567
e 1525 1568
e 1525 1569
e 1525 1570
e 1525 1571
e 1525 1572
e 1525 1573
e 1525 1574
e 1525 1575
e 1525 1576
e 1525 1577
e 1525 1578
e 1525 1579
e 1525 1580
e 1525 1581
e 1525 1582
e 1525 1583
e 1525 1584
e 1525 1585
e 1525 1586
e 1525 1587
e 1525 1588
e 1525 1589
e 1525 1590
e 1525 1591
e 1525 1592
e 1525 1593
e 1525 1594
e 1525 1595
e 1525 1596
e 1525 1597
e 1525 1598
e 1525 1599
e 1525 1600
e 1525 1601
e 1525 1602
e 1525 1603
e 1525 1604
e 1525 1605
e 1525 1606
e 1525 1607
e 1525 1608
e 1525 1609
e 1525 1610
e 1525 1611
e 1525 1612
e 1525 1613
e 1525 1614
e 1525 1615
e 1525 1616
e 1525 1617
e 1525 1618
e 1525 1619
e 1525 1620
e 1525 1621
e 1525 1622
e 1525 1623
e 1525 1624
e 1525 1625
e 1525 1626
e 1525 1627
e 1525 1628
e 1525 1629
e 1525 1630
e 1525 1631
e 1525 1632
e 1525 1633
e 1525 1634
e 1525 1635
e 1525 1636
e 1525 1637
e 1525 1638
e 1525 1639
e 1525 1640
e 1525 1641
e 1525 1642
e 1525 1643
e 1525 1644
e 1525 1645
e 1525 1646
e 1525 1647
e 1525 1648
e 1525 1649
e 1525 1650
e 1525 1651
e 1525 1652
e 1525 1653
e 1525 1654
e 1525 1655
e 1525 1656
e 1525 1657
e 1525 1658
e 1525 1659
e 1525 1660
e 1525 1661
e 1525 1662
e 1525 1663
e 1525 1664
e 1525 1665
e 1525 1666
e 1525 1667
e 1525 1668
e 1525 1669
e 1525 1670
e 1525 1671
e 1525 1672
e 1525 1673
e 1525 1674
e 1525 1675
e 1525 1676
e 1525 1677
e 1525 1678
e 1525 1679
e 1525 1680
e 1525 1681
e 1525 1682
e 1525 1683
e 1525 1684
e 1525 1685
e 1525 1686
e 1525 1687
e 1525 1688
e 1525 1689
e 1525 1690
e 1525 1691
e 1525 1692
e 1525 1693
e 1525 1694
e 1525 1695
e 1525 1696
e 1525 1697
e 1525 1698
e 1525 1699
e 1525 1700
e 1525 1701
e 1525 1702
e 1525 1703
e 1525 1704
e 1525 1705
e 1525 1706
e 1525 1707
e 1525 1708
e 1525 1709
e 1525 1710
e 1525 1711
e 1525 1712
e 1525 1713
e 1525 1714
e 1525 1715
e 1525 1716
e 1525 1717
e 1525 1718
e 1525 1719
e 1525 1720
e 1525 1721
e 1525 1722
e 1525 1723
e 1525 1724
e 1525 1725
e 1525 1726
e 1525 1727
e 1525 1728
e 1525 1729
e 1525 1730
e 1525 1731
e 1525 1732
e 1525 1733
e 1525 1734
e 1525 1735
e 1525 1736
e 1525 1737
e 1525 1738
e 1525 1739
e 1525 1740
e 1525 1741
e 1525 1742
e 1525 1743
e 1525 1744
e 1525 1745
e 1525 1746
e 1525 1747
e 1525 1748
e 1525 1749
e 1525 1750
e 1525 1751
e 1525 1752
e 1525 1753
e 1525 1754
e 1525 1755
e 1525 1756
e 1525 1757
e 1525 1758
e 1525 1759
e 1525 1760
e 1525 1761
e 1525 1762
e 1525 1763
e 1525 1764
e 1525 1765
e 1525 1766
e 1525 1767
e 1525 1768
e 1525 1769
e 1525 1770
e 1525 1771
e 1525 1772
e 1525 1773
e 1525 1774
e 1525 1775
e 1525 1776
e 1525 1777
e 1525 1778
e 1525 1779
e 1525 1780
e 1525 1781
e 1525 1782
e 1525 1783
e 1525 1784
e 1525 1785
e 1525 1786
e 1525 1787
e 1525 1788
e 1525 1789
e 1525 1790
e 1525 1791
e 1525 1792
e 1525 1793
e 1525 1794
e 1525 1795
e 1525 1796
e 1525 1797
e 1525 1798
e 1525 1799
e 1525 1800
e 1525 1801
e 1525 1802
e 1525 1803
e 1525 1804
e 1525 1805
e 1525 1806
e 1525 1807
e 1525 1808
e 1525 1809
e 1525 1810
e 1525 1811
e 1525 1812
e 1525 1813
e 1525 1814
e 1525 1815
e 1525 1816
e 1525 1817
e 1525 1818
e 1525 1819
e 1525 1820
e 1525 1821
e 1525 1822
e 1525 1823
e 1525 1824
e 1525 1825
e 1525 1826
e 1525 1827
e 1525 1828
e 1525 1829
e 1525 1830
e 1525 1831
e 1525 1832
e 1525 1833
e 1525 1834
e 1525 1835
e 1525 1836
e 1525 1837
e 1525 1838
e 1525 1839
e 1525 1840
e 1525 1841
e 1525 1842
e 1525 1843
e 1525 1844
e 1525 1845
e 1525 1846
e 1525 1847
e 1525 1848
e 1525 1849
e 1525 1850
e 1525 1851
e 1525 1852
e 1525 1853
e 1525 1854
e 1525 1855
e 1525 1856
e 1525 1857
e 1525 1858
e 1525 1859
e 1525 1860
e 1525 1861
e 1525 1862
e 1525 1863
e 1525 1864
e 1525 1865
e 1525 1866
e 1525 1867
e 1525 1868
e 1525 1869
e 1525 1870
e 1525 1871
e 1525 1872
e 1525 1873
e 1525 1874
e 1525 1875
e 1525 1876
e 1525 1877
e 1525 1878
e 1525 1879
e 1525 1880
e 1525 1881
e 1525 1882
e 1525 1883
e 1525 1884
e 1525 1885
e 1525 1886
e 1525 1887
e 1525 1888
e 1525 1889
e 1525 1890
e 1525 1891
e 1525 1892
e 1525 1893
e 1525 1894
e 1525 1895
e 1525 1896
e 1525 1897
e 1525 1898
e 1525 1899
e 1525 1900
e 1525 1901
e 1525 1902
e 1525 1903
e 1525 1904
e 1525 1905
e 1525 1906
e 1525 1907
e 1525 1908
e 1525 1909
e 1525 1910
e 1525 1911
e 1525 1912
e 1525 1913
e 1525 1914
e 1525 1915
e 1525 1916
e 1525 1917
e 1525 1918
e 1525 1919
e 1525 1920
e 1525 1921
e 1525 1922
e 1525 1923
e 1525 1924
e 1525 1925
e 1525 1926
e 1525 1927
e 1525 1928
e 1525 1929
e 1525 1930
e 1525 1931
e 1525 1932
e 1525 1933
e 1525 1934
e 1525 1935
e 1525 1936
e 1525 1937
e 1525 1938
e 1525 1939
e 1525 1940
e 1525 1941
e 1525 1942
e 1525 1943
e 1525 1944
e 1525 1945
e 1525 1946
e 1525 1947
e 1525 1948
e 1525 1949
e 1525 1950
e 1525 1951
e 1525 1952
e 1525 1953
e 1525 1954
e 1525 1955
e 1525 1956
e 1525 1957
e 1525 1958
e 1525 1959
e 1525 1960
e 1525 1961
e 1525 1962
e 1525 1963
e 1525 1964
e 1525 1965
e 1525 1966
e 1525 1967
e 1525 1968
e 1525 1969
e 1525 1970
e 1525 1971
e 1525 1972
e 1525 1973
e 1525 1974
e 1525 1975
e 1525 1976
e 1525 1977
e 1525 1978
e 1525 1979
e 1525 1980
e 1525 1981
e 1525 1982
e 1525 1983
e 1525 1984
e 1525 1985
e 1525 1986
e 1525 1987
e 1525 1988
e 1525 1989
e 1525 1990
e 1525 1991
e 1525 1992
e 1525 1993
e 1525 1994
e 1525 1995
e 1525 1996
e 1525 1997
e 1525 1998
e 1525 1999
e 1525 2000
e 1525 2001
e 1525 2002
e 1525 2003
e 1525 2004
e 1525 2005
e 1525 2006
e 1525 2007
e 1525 2008
e 1525 2009
e 1525 2010
e 1525 2011
e 1525 2012
e 1525 2013
e 1525 2014
e 1525 2015
e 1525 2016
e 1525 2017
e 1525 2018
e 1525 2019
e 1525 2020
e 1525 2021
e 1525 2022
e 1525 2023
e 1525 2024
e 1525 2025
e 1525 2026
e 1525 2027
e 1525 2028
e 1525 2029
e 1525 2030
e 1525 2031
e 1525 2032
e 1525 2033
e 1525 2034
e 1525 2035
e 1525 2036
e 1525 2037
e 1525 2038
e 1525 2039
e 1525 2040
e 1525 2041
e 1525 2042
e 1525 2043
e 1525 2044
e 1525 2045
e 1525 2046
e 1525 2047
e 1525 2048
e 1525 2049
e 1525 2050
e 1525 2051
e 1525 2052
e 1525 2053
e 1525 2054
e 1525 2055
e 1525 2056
e 1525 2057
e 1525 2058
e 1525 2059
e 1525 2060
e 1525 2061
e 1525 2062
e 1525 2063
e 1525 2064
e 1525 2065
e 1525 2066
e 1525 2067
e 1525 2068
e 1525 2069
e 1525 2070
e 1525 2071
e 1525 2072
e 1525 2073
e 1525 2074
e 1525 2075
e 1525 2076
e 1525 2077
e 1525 2078
e 1525 2079
e 1525 2080
e 1525 2081
e 1525 2082
e 1525 2083
e 1525 2084
e 1525 2085
e 1525 2086
e 1525 2087
e 1525 2088
e 1525 2089
e 1525 2090
e 1525 2091
e 1525 2092
e 1525 2093
e 1525 2094
e 1525 2095
e 1525 2096
e 1525 2097
e 1525 2098
e 1525 2099
e 1525 2100
e 1525 2101
e 1525 2102
e 1525 2103
e 1525 2104
e 1525 2105
e 1525 2106
e 1525 2107
e 1525 2108
e 1525 2109
e 1525 2110
e 1525 2111
e 1525 2112
e 1525 2113
e 1525 2114
e 1525 2115
e 1525 2116
e 1525 2117
e 1525 2118
e 1525 2119
e 1525 2120
e 1525 2121
e 1525 2122
e 1525 2123
e 1525 2124
e 1525 2125
e 1525 2126
e 1525 2127
e 1525 2128
e 1525 2129
e 1525 2130
e 1525 2131
e 1525 2132
e 1525 2133
e 1525 2134
e 1525 2135
e 1525 2136
e 1525 2137
e 1525 2138
e 1525 2139
e 1525 2140
e 1525 2141
e 1525 2142
e 1525 2143
e 1525 2144
e 1525 2145
e 1525 2146
e 1525 2147
e 1525 2148
e 1525 2149
e 1525 2150
e 1525 2151
e 1525 2152
e 1525 2153
e 1525 2154
e 1525 2155
e 1525 2156
e 1525 2157
e 1525 2158
e 1525 2159
e 1525 2160
e 1525 2161
e 1525 2162
e 1525 2163
e 1525 2164
e 1525 2165
e 1525 2166
e 1525 2167
e 1525 2168
e 1525 2169
e 1525 2170
e 1525 2171
e 1525 2172
e 1525 2173
e 1525 2174
e 1525 2175
e 1525 2176
e 1525 2177
e 1525 2178
e 1525 2179
e 1525 2180
e 1525 2181
e 1525 2182
e 1525 2183
e 1525 2184
e 1525 2185
e 1525 2186
e 1525 2187
e 1525 2188
e 1525 2189
e 1525 2190
e 1525 2191
e 1525 2192
e 1525 2193
e 1525 2194
e 1525 2195
e 1525 2196
e 1525 2197
e 1525 2198
e 1525 2199
e 1525 2200
e 1525 2201
e 1525 2202
e 1525 2203
e 1525 2204
e 1525 2205
e 1525 2206
e 1525 2207
e 1525 2208
e 1525 2209
e 1525 2210
e 1525 2211
e 1525 2212
e 1525 2213
e 1525 2214
e 1525 2215
e 1525 2216
e 1525 2217
e 1525 2218
e 1525 2219
e 1525 2220
e 1525 2221
e 1525 2222
e 1525 2223
e 1525 2224
e 1525 2225
e 1525 2226
e 1525 2227
e 1525 2228
e 1525 2229
e 1525 2230
e 1525 2231
e 2232 2233
e 2232 2234
e 2232 2235
e 2232 2236
e 2232 2237
e 2232 2238
e 2232 2239
e 2232 2240
e 2232 2241
e 2232 2242
e 2232 2243
e 2232 2244
e 2232 2245
e 2232 2246
e 2232 2247
e 2232 2248
e 2232 2249
e 2232 2250
e 2232 2251
e 2232 2252
e 2232 2253
e 2232 2254
e 2232 2255
e 2232 2256
e 2232 2257
e 2232 2258
e 2232 2259
e 2232 2260
e 2232 2261
e 2232 2262
e 2232 2263
e 2232 2264
e 2232 2265
e 2232 2266
e 2232 2267
e 2232 2268
e 2232 2269
e 2232 2270
e 2232 2271
e 2232 2272
e 2232 2273
e 2232 2274
e 2232 2275
e 2232 2276
e 2232 2277
e 2232 2278
e 2232 2279
e 2232 2280
e 2232 2281
e 2232 2282
e 2232 2283
e 2232 2284
e 2232 2285
e 2232 2286
e 2232 2287
e 2232 2288
e 2232 2289
e 2232 2290
e 2232 2291
e 2232 2292
e 2232 2293
e 2232 2294
e 2232 2295
e 2232 2296
e 2232 2297
e 2232 2298
e 2232 2299
e 2232 2300
e 2232 2301
e 2232 2302
e 2232 2303
e 2232 2304
e 2232 2305
e 2232 2306
e 2232 2307
e 2232 2308
e 2232 2309
e 2232 2310
e 2232 2311
e 2232 2312
e 2232 2313
e 2232 2314
e 2232 2315
e 2232 2316
e 2232 2317
e 2232 2318
e 2232 2319
e 2232 2320
e 2232 2321
e 2232 2322
e 2232 2323
e 2232 2324
e 2232 2325
e 2232 2326
e 2232 2327
e 2232 2328
e 2536 2537
e 2536 2538
e 2536 2539
e 2536 2540
e 2536 2541
e 2536 2542
e 2536 2543
e 2536 2544
e 2536 2545
e 2536 2546
e 2536 2547
e 2536 2548
e 2536 2549
e 2536 2550
e 2536 2551
e 2536 2552
e 2536 2553
e 2536 2554
e 2536 2555
e 2536 2556
e 2536 2557
e 2536 2558
e 2536 2559
e 2536 2560
e 2536 2561
e 2536 2562
e 2536 2563
e 2536 2564
e 2536 2565
e 2536 2566
e 2536 2567
e 2536 2568
e 2536 2569
e 2536 2570
e 2536 2571
e 2536 2572
e 2536 2573
e 2536 2574
e 2536 2575
e 2536 2576
e 2536 2577
e 2536 2578
e 2536 2579
e 2536 2580
e 2536 2581
e 2536 2582
e 2536 2583
e 2536 2584
e 2536 2585
e 2536 2586
e 2536 2587
e 2536 2588
e 2536 2589
e 2536 2590
e 2536 2591
e 2536 2592
e 2536 2593
e 2536 2594
e 2687 2688
e 2687 2689
e 2687 2690
e 2687 2691
e 2687 2692
e 2687 2693
e 2687 2694
e 2687 2695
e 2687 2696
e 2687 2697
e 2687 2698
e 2687 2699
e 2687 2700
e 2687 2701
e 2687 2702
e 2687 2703
e 2687 2704
e 2687 2705
e 2687 2706
e 2687 2707
e 2687 2708
e 2687 2709
e 2687 2710
e 2687 2711
e 2687 2712
e 2687 2713
e 2687 2714
e 2687 2715
e 2687 2716
e 2687 2717
e 2687 2718
e 2687 2719
e 2687 2720
e 2687 2721
e 2687 2722
e 2687 2723
e 2687 2724
e 2687 2725
e 2687 2726
e 2687 2727
e 2687 2728
e 2687 2729
e 2687 2730
e 2687 2731
e 2687 2732
e 2687 2733
e 2687 2734
e 2687 2735
e 2687 2736
e 2687 2737
e 2687 2738
e 2687 2739
e 2687 2740
e 2687 2741
e 2687 2742
e 2687 2743
e 2687 2744
e 2687 2745
e 2687 2746
e 2687 2747
e 2687 2748
e 2687 2749
e 2687 2750
e 2687 2751
e 2687 2752
e 2687 2753
e 2687 2754
e 2687 2755
e 2687 2756
e 2687 2757
e 2687 2758
e 2687 2759
e 2687 2760
e 2687 2761
e 2687 2762
e 2687 2763
e 2687 2764
e 2687 2765
e 2687 2766
e 2687 2767
e 2687 2768
e 2687 2769
e 2687 2770
e 2687 2771
e 2687 2772
e 2687 2773
e 2687 2774
e 2687 2775
e 2687 2776
e 2687 2777
e 2687 2778
e 2687 2779
e 2687 2780
e 2687 2781
e 2687 2782
e 2687 2783
e 2687 2784
e 2687 2785
e 2687 2786
e 2687 2787
e 2687 2788
e 2687 2789
e 2687 2790
e 2687 2791
e 2687 2792
e 2687 2793
e 2687 2794
e 2687 2795
e 2687 2796
e 2687 2797
e 2687 2798
e 2687 2799
e 2687 2800
e 2687 2801
e 2687 2802
e 2687 2803
e 2687 2804
e 2687 2805
e 2687 2806
e 2687 2807
e 2687 2808
e 2687 2809
e 2687 2810
e 2687 2811
e 2687 2812
e 2687 2813
e 2687 2814
e 2687 2815
e 2687 2816
e 2687 2817
e 2687 2818
e 2687 2819
e 2687 2820
e 2687 2821
e 2687 2822
e 2687 2823
e 2687 2824
e 2687 2825
e 2687 2826
e 2687 2827
e 2687 2828
e 2687 2829
e 2687 2830
e 2687 2831
e 2687 2832
e 2687 2833
e 2687 2834
e 2687 2835
e 2687 2836
e 2687 2837
e 2687 2838
e 2687 2839
e 2687 2840
e 2687 2841
e 2687 2842
e 2687 2843
e 2687 2844
e 2687 2845
e 2687 2846
e 2687 2847
e 2687 2848
e 2687 2849
e 2687 2850
e 2687 2851
e 2687 2852
e 2687 2853
e 2687 2854
e 2687 2855
e 2687 2856
e 2687 2857
e 2698 2699
e 2699 2709
e 2699 2714
e 2699 2720
e 2699 2730
e 2699 2746
e 2699 2748
e 2699 2754
e 2699 2773
e 2699 2775
e 2699 2777
e 2699 2801
e 2699 2804
e 2699 2805
e 2699 2806
e 2699 2811
e 2699 2824
e 2699 2826
e 2699 2829
e 2699 2831
e 2699 2841
e 2699 2857
e 2699 2858
e 2699 2859
e 2699 2860
e 2699 2861
e 2699 2862
e 2699 2863
e 2699 2864
e 2699 2865
e 2699 2866
e 2699 2867
e 2699 2868
e 2699 2869
e 2699 2870
e 2699 2871
e 2699 2872
e 2699 2873
e 2699 2874
e 2699 2875
e 2699 2876
e 2699 2877
e 2699 2878
e 2699 2879
e 2699 2880
e 2699 2881
e 2699 2882
e 2699 2883
e 2699 2884
e 2699 2885
e 2699 2886
e 2699 2887
e 2699 2888
